(declare-sort $$unsorted 0)
(declare-fun tptp.op ($$unsorted $$unsorted) $$unsorted)
(assert (forall ((X0 $$unsorted) (X1 $$unsorted) (X2 $$unsorted)) (= X0 (tptp.op (tptp.op X0 (tptp.op X1 X2)) (tptp.op X2 X2)))))
(assert (not (forall ((X0 $$unsorted) (X1 $$unsorted) (X2 $$unsorted)) (let ((_let_1 (tptp.op X0 X1))) (= X0 (tptp.op _let_1 _let_1))))))
(set-info :filename Equation1877_implies_Equation157)
(check-sat-assuming ( true ))
